c   #vars: 37   #clauses: 174   #literals: 535
c 
p cnf 37 174
-2 -3 0
-4 -5 0
-6 -7 0
15 30 31 -36 0
-8 15 30 31 0
9 -19 -22 27 0
-8 15 35 36 0
10 11 35 36 0
-3 14 -32 34 0
-5 14 -32 34 0
15 35 36 -37 0
-10 -11 0
-12 -13 0
9 -19 -32 -33 0
2 3 16 -36 0
8 15 -23 -37 0
-17 -18 0
-19 -20 0
2 3 21 22 0
-21 -22 0
-23 -24 0
-25 -26 0
4 5 -14 34 0
-28 -29 0
-30 -31 0
-32 -33 0
14 -28 32 33 0
15 -31 35 36 0
-35 -36 0
1 -17 28 29 0
8 15 -19 -31 0
-1 -18 0
-13 21 22 27 0
-1 -29 0
-8 15 -17 37 0
15 30 31 -37 0
-1 -33 0
6 7 21 22 0
-2 -16 0
8 15 -23 -36 0
-12 15 -36 37 0
-2 -21 0
-3 -22 0
12 13 25 26 0
-2 -23 0
-3 -24 0
4 5 21 22 0
-2 -32 0
-3 -33 0
6 7 32 33 0
-2 -34 0
4 5 30 31 0
-2 -35 0
-3 -36 0
-4 -12 0
-5 -13 0
-12 15 -31 37 0
-4 -17 0
-5 -18 0
2 3 23 24 0
-4 -21 0
-5 -22 0
23 24 30 31 0
-4 -28 0
-5 -29 0
-4 -30 0
-5 -31 0
6 7 35 36 0
-4 -34 0
12 13 -17 37 0
-6 -17 0
-7 -18 0
-3 16 25 26 0
-6 -21 0
-7 -22 0
9 -19 -22 27 -33 0
-6 -28 0
-7 -29 0
-9 12 13 27 0
-6 -32 0
-7 -33 0
-11 16 35 36 0
-6 -35 0
-7 -36 0
-11 16 25 26 0
8 19 20 -23 0
9 -13 -19 27 -33 0
8 -15 19 20 0
14 28 29 -34 0
1 28 29 -32 0
4 5 12 13 0
-8 -12 15 37 0
9 19 20 -27 -33 0
10 11 30 31 0
2 3 35 36 0
9 -13 -19 27 0
10 11 16 -26 0
-8 -20 0
-8 -24 0
17 18 25 26 0
8 -15 23 24 0
-15 17 18 37 0
8 -19 23 24 0
2 3 32 33 0
4 5 28 29 0
9 19 20 -27 0
-9 21 22 27 0
-5 14 -28 34 0
2 3 16 -26 0
-12 17 18 37 0
10 11 23 24 0
-9 -20 0
10 11 25 26 0
-3 4 5 34 0
-3 14 -28 34 0
-10 -16 0
8 15 -23 -31 0
21 22 35 36 0
-10 -19 0
-11 -20 0
15 -17 -31 37 0
-10 -23 0
-11 -24 0
15 -17 -36 37 0
-10 -25 0
-11 -26 0
-10 -30 0
-11 -31 0
4 5 17 18 0
-10 -35 0
-11 -36 0
1 17 18 -28 0
-12 -25 0
-13 -26 0
-12 -27 0
2 3 -14 34 0
16 25 26 -36 0
-13 -37 0
1 -28 32 33 0
-14 -29 0
12 13 -22 27 0
1 -17 32 33 0
-14 -33 0
10 11 19 20 0
1 17 18 -32 0
12 13 -15 37 0
-15 -30 0
-15 -35 0
9 -27 -32 -33 0
6 7 17 18 0
10 11 16 -36 0
2 3 -11 16 0
16 -26 35 36 0
-16 -25 0
8 15 -19 -37 0
6 7 28 29 0
14 28 29 -32 0
-16 -35 0
8 15 -19 -36 0
14 32 33 -34 0
-17 -25 0
-18 -26 0
17 18 32 33 0
-17 -32 0
-18 -33 0
-3 10 11 16 0
-18 -37 0
-21 -27 0
2 3 -5 34 0
-3 16 35 36 0
-21 -35 0
-22 -36 0
-23 -30 0
-24 -31 0
